c turning on binary mode checking
c parsing input formula with 259840 variables and 1039934 clauses
c finished parsing, read 3142289 bytes from proof file
c detected empty clause; start verification via backward checking
c 4676 of 1039934 clauses in core                            
c 1535 of 123781 lemmas in core using 39372 resolution steps
c 0 RAT lemmas in core; 178 redundant literals in core lemmas
s VERIFIED
c verification time: 1.243 seconds
